p edge 120 3587
e 3 1
e 3 2
e 4 2
e 5 2
e 5 3
e 5 4
e 6 1
e 6 2
e 6 4
e 7 1
e 7 2
e 7 3
e 7 5
e 8 1
e 8 2
e 8 3
e 8 5
e 9 1
e 9 2
e 9 3
e 9 5
e 10 3
e 10 5
e 10 8
e 10 9
e 11 1
e 11 2
e 11 3
e 11 4
e 11 6
e 11 9
e 12 6
e 13 3
e 13 4
e 13 5
e 13 6
e 13 9
e 13 10
e 14 2
e 14 5
e 14 6
e 14 8
e 14 9
e 14 10
e 14 12
e 15 1
e 15 2
e 15 4
e 15 5
e 15 6
e 15 8
e 15 9
e 15 10
e 15 11
e 15 12
e 15 13
e 16 3
e 16 4
e 16 5
e 16 12
e 16 13
e 16 14
e 17 3
e 17 7
e 17 8
e 17 11
e 17 12
e 17 14
e 17 16
e 18 2
e 18 3
e 18 4
e 18 7
e 18 8
e 18 10
e 18 12
e 18 15
e 18 16
e 18 17
e 19 4
e 19 5
e 19 6
e 19 8
e 19 9
e 19 10
e 19 11
e 19 12
e 19 14
e 20 1
e 20 2
e 20 5
e 20 6
e 20 9
e 20 12
e 20 13
e 20 17
e 20 18
e 21 4
e 21 5
e 21 6
e 21 9
e 21 11
e 21 12
e 21 15
e 21 16
e 21 17
e 21 19
e 21 20
e 22 2
e 22 3
e 22 4
e 22 5
e 22 6
e 22 8
e 22 13
e 22 16
e 22 17
e 22 21
e 23 1
e 23 7
e 23 9
e 23 11
e 23 13
e 23 14
e 23 16
e 23 18
e 24 1
e 24 4
e 24 5
e 24 7
e 24 9
e 24 11
e 24 12
e 24 13
e 24 14
e 24 15
e 24 16
e 24 17
e 24 20
e 25 1
e 25 2
e 25 3
e 25 5
e 25 6
e 25 8
e 25 9
e 25 13
e 25 16
e 25 19
e 25 21
e 25 22
e 25 24
e 26 1
e 26 4
e 26 5
e 26 6
e 26 7
e 26 11
e 26 12
e 26 15
e 26 18
e 26 19
e 26 20
e 26 22
e 27 3
e 27 7
e 27 12
e 27 14
e 27 21
e 27 22
e 27 23
e 27 24
e 27 26
e 28 2
e 28 3
e 28 4
e 28 7
e 28 10
e 28 12
e 28 13
e 28 15
e 28 17
e 28 18
e 28 20
e 28 21
e 28 22
e 28 24
e 29 4
e 29 5
e 29 6
e 29 7
e 29 12
e 29 14
e 29 15
e 29 16
e 29 17
e 29 18
e 29 19
e 29 20
e 29 25
e 29 26
e 30 1
e 30 3
e 30 4
e 30 5
e 30 6
e 30 9
e 30 10
e 30 14
e 30 16
e 30 19
e 30 20
e 30 21
e 30 22
e 30 25
e 30 27
e 30 29
e 31 1
e 31 4
e 31 7
e 31 8
e 31 9
e 31 11
e 31 12
e 31 13
e 31 17
e 31 18
e 31 20
e 31 21
e 31 23
e 31 27
e 31 28
e 32 2
e 32 3
e 32 4
e 32 7
e 32 8
e 32 9
e 32 10
e 32 12
e 32 14
e 32 15
e 32 17
e 32 19
e 32 23
e 32 27
e 32 28
e 32 31
e 33 4
e 33 6
e 33 7
e 33 12
e 33 13
e 33 15
e 33 17
e 33 19
e 33 20
e 33 22
e 33 24
e 33 28
e 33 29
e 33 30
e 33 31
e 33 32
e 34 2
e 34 5
e 34 6
e 34 7
e 34 9
e 34 10
e 34 11
e 34 12
e 34 24
e 34 25
e 34 27
e 34 28
e 34 29
e 34 33
e 35 4
e 35 5
e 35 6
e 35 7
e 35 8
e 35 9
e 35 10
e 35 11
e 35 14
e 35 15
e 35 18
e 35 23
e 35 26
e 35 29
e 35 30
e 35 31
e 35 32
e 35 34
e 36 1
e 36 2
e 36 7
e 36 9
e 36 10
e 36 12
e 36 16
e 36 17
e 36 18
e 36 21
e 36 27
e 36 29
e 36 30
e 36 33
e 36 34
e 37 2
e 37 3
e 37 4
e 37 9
e 37 10
e 37 11
e 37 12
e 37 13
e 37 16
e 37 19
e 37 20
e 37 23
e 37 26
e 37 33
e 38 2
e 38 4
e 38 5
e 38 6
e 38 8
e 38 9
e 38 10
e 38 11
e 38 13
e 38 14
e 38 17
e 38 20
e 38 21
e 38 22
e 38 24
e 38 26
e 38 27
e 38 28
e 38 29
e 38 31
e 38 32
e 38 33
e 38 35
e 39 3
e 39 4
e 39 6
e 39 7
e 39 8
e 39 11
e 39 14
e 39 15
e 39 17
e 39 23
e 39 24
e 39 25
e 39 27
e 39 29
e 39 31
e 39 32
e 39 33
e 39 35
e 39 36
e 39 37
e 40 1
e 40 3
e 40 4
e 40 9
e 40 10
e 40 15
e 40 16
e 40 17
e 40 28
e 40 30
e 40 32
e 40 35
e 40 37
e 41 1
e 41 3
e 41 7
e 41 10
e 41 11
e 41 15
e 41 16
e 41 18
e 41 19
e 41 21
e 41 22
e 41 24
e 41 27
e 41 28
e 41 35
e 41 40
e 42 3
e 42 8
e 42 10
e 42 14
e 42 19
e 42 22
e 42 23
e 42 24
e 42 25
e 42 26
e 42 28
e 42 29
e 42 30
e 42 33
e 42 34
e 42 36
e 42 37
e 42 41
e 43 3
e 43 7
e 43 8
e 43 9
e 43 11
e 43 12
e 43 14
e 43 16
e 43 18
e 43 23
e 43 25
e 43 28
e 43 29
e 43 30
e 43 31
e 43 32
e 43 33
e 43 34
e 43 38
e 43 40
e 43 41
e 44 1
e 44 6
e 44 7
e 44 9
e 44 10
e 44 11
e 44 14
e 44 15
e 44 16
e 44 18
e 44 21
e 44 22
e 44 23
e 44 24
e 44 25
e 44 27
e 44 29
e 44 30
e 44 31
e 44 37
e 44 39
e 44 40
e 44 42
e 44 43
e 45 1
e 45 9
e 45 11
e 45 14
e 45 16
e 45 17
e 45 20
e 45 21
e 45 23
e 45 24
e 45 25
e 45 26
e 45 27
e 45 28
e 45 29
e 45 33
e 45 34
e 45 35
e 45 36
e 45 37
e 45 42
e 45 43
e 46 1
e 46 5
e 46 7
e 46 9
e 46 10
e 46 12
e 46 14
e 46 16
e 46 20
e 46 22
e 46 23
e 46 24
e 46 25
e 46 27
e 46 29
e 46 31
e 46 34
e 46 38
e 46 40
e 46 41
e 46 44
e 47 1
e 47 2
e 47 4
e 47 8
e 47 9
e 47 16
e 47 18
e 47 25
e 47 26
e 47 28
e 47 30
e 47 31
e 47 38
e 47 42
e 47 44
e 47 46
e 48 1
e 48 3
e 48 4
e 48 7
e 48 8
e 48 10
e 48 13
e 48 14
e 48 18
e 48 21
e 48 22
e 48 23
e 48 25
e 48 26
e 48 28
e 48 30
e 48 31
e 48 33
e 48 34
e 48 35
e 48 37
e 48 38
e 48 40
e 48 42
e 48 44
e 48 45
e 48 47
e 49 1
e 49 3
e 49 6
e 49 7
e 49 11
e 49 15
e 49 17
e 49 18
e 49 20
e 49 21
e 49 22
e 49 24
e 49 27
e 49 28
e 49 29
e 49 30
e 49 31
e 49 32
e 49 34
e 49 35
e 49 36
e 49 37
e 49 38
e 49 40
e 49 46
e 49 47
e 49 48
e 50 1
e 50 2
e 50 4
e 50 5
e 50 7
e 50 10
e 50 14
e 50 16
e 50 18
e 50 20
e 50 21
e 50 25
e 50 33
e 50 34
e 50 35
e 50 38
e 50 39
e 50 42
e 50 43
e 50 45
e 50 46
e 50 47
e 50 48
e 50 49
e 51 1
e 51 4
e 51 5
e 51 6
e 51 9
e 51 10
e 51 14
e 51 15
e 51 17
e 51 18
e 51 19
e 51 20
e 51 21
e 51 23
e 51 26
e 51 27
e 51 29
e 51 35
e 51 38
e 51 39
e 51 41
e 51 45
e 51 46
e 51 47
e 51 50
e 52 2
e 52 4
e 52 5
e 52 6
e 52 7
e 52 13
e 52 14
e 52 15
e 52 16
e 52 17
e 52 21
e 52 26
e 52 30
e 52 32
e 52 33
e 52 34
e 52 35
e 52 36
e 52 39
e 52 40
e 52 41
e 52 42
e 52 43
e 52 44
e 52 45
e 52 46
e 52 48
e 53 2
e 53 6
e 53 13
e 53 15
e 53 16
e 53 17
e 53 19
e 53 20
e 53 21
e 53 25
e 53 26
e 53 27
e 53 28
e 53 30
e 53 33
e 53 35
e 53 38
e 53 42
e 53 43
e 53 46
e 53 47
e 53 48
e 53 52
e 54 1
e 54 3
e 54 8
e 54 9
e 54 13
e 54 15
e 54 17
e 54 18
e 54 19
e 54 21
e 54 22
e 54 24
e 54 25
e 54 27
e 54 28
e 54 30
e 54 31
e 54 33
e 54 37
e 54 39
e 54 41
e 54 42
e 54 45
e 54 46
e 54 47
e 54 48
e 54 52
e 54 53
e 55 1
e 55 2
e 55 3
e 55 4
e 55 7
e 55 9
e 55 10
e 55 16
e 55 19
e 55 22
e 55 23
e 55 25
e 55 27
e 55 28
e 55 29
e 55 31
e 55 32
e 55 34
e 55 38
e 55 40
e 55 43
e 55 48
e 55 49
e 55 50
e 55 51
e 55 52
e 55 54
e 56 1
e 56 3
e 56 4
e 56 7
e 56 9
e 56 11
e 56 12
e 56 13
e 56 15
e 56 18
e 56 19
e 56 20
e 56 24
e 56 27
e 56 30
e 56 31
e 56 32
e 56 36
e 56 37
e 56 41
e 56 43
e 56 44
e 56 45
e 56 46
e 56 47
e 56 49
e 56 52
e 56 53
e 56 54
e 57 1
e 57 4
e 57 8
e 57 9
e 57 11
e 57 13
e 57 14
e 57 18
e 57 19
e 57 29
e 57 30
e 57 32
e 57 33
e 57 36
e 57 37
e 57 39
e 57 42
e 57 44
e 57 46
e 57 48
e 57 52
e 57 54
e 57 55
e 58 1
e 58 2
e 58 4
e 58 5
e 58 8
e 58 10
e 58 12
e 58 13
e 58 16
e 58 17
e 58 18
e 58 19
e 58 24
e 58 25
e 58 30
e 58 31
e 58 36
e 58 37
e 58 38
e 58 39
e 58 40
e 58 41
e 58 42
e 58 44
e 58 45
e 58 47
e 58 48
e 58 49
e 58 50
e 58 51
e 58 56
e 59 3
e 59 4
e 59 5
e 59 6
e 59 14
e 59 15
e 59 17
e 59 18
e 59 19
e 59 21
e 59 22
e 59 23
e 59 24
e 59 25
e 59 31
e 59 36
e 59 37
e 59 40
e 59 41
e 59 42
e 59 43
e 59 44
e 59 45
e 59 47
e 59 48
e 59 49
e 59 52
e 59 54
e 59 56
e 59 57
e 59 58
e 60 4
e 60 5
e 60 6
e 60 7
e 60 10
e 60 11
e 60 12
e 60 14
e 60 17
e 60 20
e 60 22
e 60 24
e 60 25
e 60 26
e 60 27
e 60 28
e 60 31
e 60 32
e 60 33
e 60 36
e 60 37
e 60 38
e 60 39
e 60 43
e 60 50
e 60 51
e 60 53
e 60 54
e 60 55
e 60 56
e 60 58
e 60 59
e 61 1
e 61 2
e 61 4
e 61 5
e 61 9
e 61 13
e 61 14
e 61 15
e 61 17
e 61 18
e 61 22
e 61 28
e 61 29
e 61 30
e 61 31
e 61 35
e 61 37
e 61 40
e 61 43
e 61 45
e 61 46
e 61 51
e 61 52
e 61 54
e 61 56
e 61 58
e 61 60
e 62 1
e 62 5
e 62 6
e 62 7
e 62 9
e 62 10
e 62 11
e 62 18
e 62 19
e 62 21
e 62 22
e 62 23
e 62 24
e 62 25
e 62 26
e 62 27
e 62 29
e 62 30
e 62 34
e 62 35
e 62 36
e 62 37
e 62 41
e 62 44
e 62 45
e 62 47
e 62 48
e 62 50
e 62 52
e 62 54
e 62 55
e 62 56
e 62 57
e 62 59
e 62 60
e 63 6
e 63 8
e 63 9
e 63 11
e 63 12
e 63 17
e 63 21
e 63 22
e 63 23
e 63 24
e 63 28
e 63 30
e 63 31
e 63 33
e 63 35
e 63 38
e 63 39
e 63 41
e 63 44
e 63 45
e 63 46
e 63 48
e 63 49
e 63 53
e 63 54
e 63 57
e 63 61
e 63 62
e 64 1
e 64 3
e 64 5
e 64 8
e 64 9
e 64 10
e 64 11
e 64 12
e 64 16
e 64 18
e 64 19
e 64 20
e 64 22
e 64 23
e 64 24
e 64 29
e 64 31
e 64 33
e 64 34
e 64 36
e 64 37
e 64 38
e 64 40
e 64 42
e 64 43
e 64 45
e 64 48
e 64 49
e 64 50
e 64 52
e 64 53
e 64 55
e 64 57
e 64 59
e 64 61
e 64 62
e 64 63
e 65 2
e 65 5
e 65 6
e 65 7
e 65 8
e 65 11
e 65 12
e 65 18
e 65 20
e 65 21
e 65 24
e 65 25
e 65 26
e 65 28
e 65 30
e 65 34
e 65 35
e 65 36
e 65 37
e 65 38
e 65 40
e 65 41
e 65 42
e 65 45
e 65 46
e 65 49
e 65 57
e 65 58
e 65 61
e 65 62
e 65 63
e 66 1
e 66 3
e 66 7
e 66 9
e 66 11
e 66 14
e 66 15
e 66 17
e 66 19
e 66 20
e 66 21
e 66 23
e 66 26
e 66 28
e 66 31
e 66 33
e 66 35
e 66 38
e 66 42
e 66 44
e 66 45
e 66 46
e 66 47
e 66 48
e 66 54
e 66 57
e 66 62
e 66 65
e 67 2
e 67 3
e 67 4
e 67 7
e 67 8
e 67 10
e 67 12
e 67 13
e 67 18
e 67 22
e 67 23
e 67 25
e 67 26
e 67 29
e 67 30
e 67 33
e 67 36
e 67 37
e 67 38
e 67 40
e 67 42
e 67 43
e 67 44
e 67 48
e 67 52
e 67 54
e 67 56
e 67 64
e 67 65
e 68 1
e 68 2
e 68 5
e 68 6
e 68 8
e 68 12
e 68 13
e 68 15
e 68 17
e 68 22
e 68 24
e 68 26
e 68 27
e 68 29
e 68 30
e 68 31
e 68 34
e 68 35
e 68 36
e 68 37
e 68 45
e 68 46
e 68 47
e 68 48
e 68 49
e 68 53
e 68 55
e 68 57
e 68 60
e 68 62
e 68 63
e 68 64
e 69 1
e 69 3
e 69 5
e 69 8
e 69 10
e 69 14
e 69 16
e 69 17
e 69 19
e 69 21
e 69 23
e 69 27
e 69 28
e 69 29
e 69 30
e 69 33
e 69 40
e 69 42
e 69 44
e 69 45
e 69 46
e 69 47
e 69 49
e 69 50
e 69 57
e 69 58
e 69 60
e 69 62
e 69 66
e 69 67
e 69 68
e 70 1
e 70 3
e 70 5
e 70 6
e 70 9
e 70 10
e 70 11
e 70 12
e 70 13
e 70 15
e 70 16
e 70 17
e 70 19
e 70 23
e 70 24
e 70 25
e 70 26
e 70 27
e 70 28
e 70 30
e 70 31
e 70 34
e 70 38
e 70 39
e 70 41
e 70 42
e 70 45
e 70 46
e 70 47
e 70 48
e 70 51
e 70 52
e 70 54
e 70 55
e 70 56
e 70 57
e 70 59
e 70 60
e 70 62
e 70 68
e 70 69
e 71 2
e 71 3
e 71 5
e 71 9
e 71 11
e 71 12
e 71 16
e 71 18
e 71 22
e 71 27
e 71 29
e 71 30
e 71 31
e 71 32
e 71 34
e 71 35
e 71 37
e 71 39
e 71 41
e 71 44
e 71 45
e 71 46
e 71 47
e 71 49
e 71 52
e 71 56
e 71 61
e 71 62
e 71 63
e 71 64
e 71 67
e 71 68
e 71 69
e 71 70
e 72 1
e 72 2
e 72 8
e 72 9
e 72 10
e 72 14
e 72 16
e 72 17
e 72 18
e 72 19
e 72 20
e 72 21
e 72 22
e 72 23
e 72 24
e 72 25
e 72 26
e 72 27
e 72 29
e 72 31
e 72 33
e 72 34
e 72 37
e 72 38
e 72 40
e 72 47
e 72 48
e 72 49
e 72 53
e 72 56
e 72 57
e 72 59
e 72 60
e 72 61
e 72 62
e 72 63
e 72 65
e 72 66
e 72 67
e 72 68
e 72 69
e 72 70
e 73 2
e 73 5
e 73 6
e 73 7
e 73 9
e 73 11
e 73 13
e 73 14
e 73 18
e 73 19
e 73 22
e 73 26
e 73 30
e 73 32
e 73 35
e 73 36
e 73 37
e 73 40
e 73 41
e 73 42
e 73 44
e 73 47
e 73 49
e 73 51
e 73 52
e 73 53
e 73 55
e 73 56
e 73 57
e 73 59
e 73 60
e 73 63
e 73 65
e 73 66
e 73 67
e 73 68
e 73 70
e 73 71
e 73 72
e 74 1
e 74 3
e 74 4
e 74 5
e 74 6
e 74 8
e 74 10
e 74 16
e 74 19
e 74 20
e 74 21
e 74 22
e 74 25
e 74 28
e 74 29
e 74 30
e 74 31
e 74 32
e 74 33
e 74 34
e 74 35
e 74 37
e 74 39
e 74 40
e 74 41
e 74 42
e 74 43
e 74 44
e 74 45
e 74 46
e 74 47
e 74 48
e 74 50
e 74 51
e 74 52
e 74 53
e 74 56
e 74 57
e 74 59
e 74 60
e 74 62
e 74 63
e 74 64
e 74 66
e 74 70
e 74 72
e 74 73
e 75 3
e 75 7
e 75 12
e 75 13
e 75 17
e 75 18
e 75 19
e 75 21
e 75 22
e 75 23
e 75 24
e 75 28
e 75 29
e 75 30
e 75 32
e 75 34
e 75 36
e 75 38
e 75 43
e 75 45
e 75 48
e 75 50
e 75 51
e 75 53
e 75 54
e 75 56
e 75 57
e 75 59
e 75 60
e 75 62
e 75 63
e 75 66
e 75 67
e 75 70
e 75 71
e 75 72
e 76 1
e 76 2
e 76 3
e 76 4
e 76 6
e 76 7
e 76 9
e 76 10
e 76 14
e 76 16
e 76 17
e 76 24
e 76 26
e 76 31
e 76 33
e 76 36
e 76 37
e 76 40
e 76 41
e 76 45
e 76 46
e 76 47
e 76 48
e 76 49
e 76 51
e 76 53
e 76 56
e 76 57
e 76 60
e 76 61
e 76 65
e 76 66
e 76 71
e 76 72
e 76 73
e 76 74
e 77 3
e 77 4
e 77 5
e 77 6
e 77 7
e 77 11
e 77 12
e 77 15
e 77 19
e 77 20
e 77 21
e 77 22
e 77 27
e 77 28
e 77 30
e 77 32
e 77 33
e 77 35
e 77 36
e 77 38
e 77 39
e 77 45
e 77 48
e 77 54
e 77 57
e 77 61
e 77 62
e 77 65
e 77 71
e 77 72
e 77 74
e 77 75
e 77 76
e 78 3
e 78 8
e 78 12
e 78 13
e 78 16
e 78 21
e 78 22
e 78 23
e 78 24
e 78 26
e 78 27
e 78 30
e 78 32
e 78 33
e 78 38
e 78 40
e 78 42
e 78 45
e 78 46
e 78 49
e 78 50
e 78 51
e 78 53
e 78 55
e 78 56
e 78 59
e 78 61
e 78 65
e 78 70
e 78 71
e 78 74
e 78 75
e 79 1
e 79 3
e 79 4
e 79 7
e 79 9
e 79 11
e 79 12
e 79 13
e 79 15
e 79 16
e 79 17
e 79 18
e 79 20
e 79 22
e 79 23
e 79 24
e 79 25
e 79 26
e 79 28
e 79 30
e 79 33
e 79 36
e 79 38
e 79 39
e 79 40
e 79 41
e 79 44
e 79 46
e 79 47
e 79 48
e 79 50
e 79 51
e 79 53
e 79 56
e 79 58
e 79 60
e 79 62
e 79 63
e 79 64
e 79 67
e 79 71
e 79 74
e 79 75
e 79 78
e 80 3
e 80 4
e 80 5
e 80 6
e 80 10
e 80 13
e 80 14
e 80 15
e 80 16
e 80 21
e 80 24
e 80 25
e 80 26
e 80 28
e 80 29
e 80 31
e 80 32
e 80 33
e 80 35
e 80 37
e 80 38
e 80 41
e 80 42
e 80 44
e 80 48
e 80 50
e 80 53
e 80 55
e 80 58
e 80 61
e 80 63
e 80 64
e 80 68
e 80 72
e 80 73
e 80 74
e 80 76
e 80 79
e 81 4
e 81 5
e 81 10
e 81 11
e 81 15
e 81 16
e 81 19
e 81 20
e 81 21
e 81 23
e 81 25
e 81 28
e 81 30
e 81 34
e 81 37
e 81 38
e 81 41
e 81 42
e 81 43
e 81 45
e 81 46
e 81 47
e 81 50
e 81 52
e 81 54
e 81 56
e 81 58
e 81 59
e 81 61
e 81 64
e 81 65
e 81 70
e 81 72
e 81 73
e 81 74
e 81 75
e 81 77
e 81 80
e 82 3
e 82 7
e 82 9
e 82 10
e 82 11
e 82 12
e 82 13
e 82 14
e 82 16
e 82 18
e 82 20
e 82 21
e 82 23
e 82 26
e 82 29
e 82 32
e 82 33
e 82 34
e 82 36
e 82 37
e 82 38
e 82 39
e 82 40
e 82 41
e 82 42
e 82 43
e 82 45
e 82 48
e 82 51
e 82 53
e 82 56
e 82 57
e 82 61
e 82 62
e 82 63
e 82 66
e 82 72
e 82 74
e 82 75
e 82 76
e 82 77
e 82 78
e 82 79
e 82 80
e 83 2
e 83 5
e 83 8
e 83 11
e 83 12
e 83 16
e 83 18
e 83 19
e 83 20
e 83 21
e 83 22
e 83 23
e 83 24
e 83 25
e 83 26
e 83 27
e 83 33
e 83 37
e 83 38
e 83 42
e 83 50
e 83 51
e 83 53
e 83 55
e 83 57
e 83 58
e 83 61
e 83 65
e 83 68
e 83 69
e 83 70
e 83 71
e 83 73
e 83 74
e 83 77
e 83 78
e 83 80
e 83 82
e 84 9
e 84 10
e 84 11
e 84 14
e 84 18
e 84 20
e 84 24
e 84 25
e 84 26
e 84 27
e 84 29
e 84 36
e 84 37
e 84 41
e 84 43
e 84 44
e 84 46
e 84 47
e 84 48
e 84 49
e 84 50
e 84 51
e 84 52
e 84 53
e 84 54
e 84 56
e 84 57
e 84 58
e 84 59
e 84 61
e 84 62
e 84 64
e 84 65
e 84 68
e 84 69
e 84 72
e 84 73
e 84 76
e 84 79
e 84 81
e 84 83
e 85 2
e 85 3
e 85 4
e 85 5
e 85 7
e 85 8
e 85 9
e 85 11
e 85 16
e 85 18
e 85 19
e 85 21
e 85 23
e 85 24
e 85 25
e 85 26
e 85 27
e 85 28
e 85 30
e 85 33
e 85 34
e 85 35
e 85 37
e 85 38
e 85 41
e 85 43
e 85 45
e 85 48
e 85 51
e 85 53
e 85 54
e 85 55
e 85 57
e 85 58
e 85 59
e 85 63
e 85 64
e 85 65
e 85 66
e 85 67
e 85 68
e 85 76
e 85 77
e 85 78
e 85 80
e 85 82
e 86 2
e 86 3
e 86 7
e 86 10
e 86 11
e 86 12
e 86 13
e 86 14
e 86 20
e 86 24
e 86 25
e 86 26
e 86 27
e 86 31
e 86 33
e 86 35
e 86 37
e 86 39
e 86 40
e 86 41
e 86 42
e 86 43
e 86 45
e 86 46
e 86 50
e 86 51
e 86 52
e 86 54
e 86 58
e 86 60
e 86 62
e 86 64
e 86 69
e 86 70
e 86 71
e 86 72
e 86 73
e 86 74
e 86 75
e 86 76
e 86 78
e 86 80
e 86 81
e 86 83
e 86 85
e 87 4
e 87 8
e 87 9
e 87 11
e 87 13
e 87 18
e 87 21
e 87 24
e 87 25
e 87 26
e 87 29
e 87 30
e 87 34
e 87 37
e 87 38
e 87 42
e 87 44
e 87 45
e 87 50
e 87 51
e 87 53
e 87 55
e 87 56
e 87 60
e 87 61
e 87 65
e 87 66
e 87 70
e 87 72
e 87 73
e 87 74
e 87 75
e 87 79
e 87 80
e 87 83
e 87 84
e 87 86
e 88 1
e 88 3
e 88 7
e 88 8
e 88 11
e 88 12
e 88 15
e 88 17
e 88 19
e 88 23
e 88 25
e 88 26
e 88 27
e 88 29
e 88 30
e 88 32
e 88 34
e 88 35
e 88 41
e 88 44
e 88 45
e 88 49
e 88 50
e 88 52
e 88 54
e 88 64
e 88 67
e 88 69
e 88 70
e 88 71
e 88 73
e 88 76
e 88 78
e 88 80
e 88 81
e 88 82
e 88 85
e 88 86
e 88 87
e 89 4
e 89 6
e 89 7
e 89 8
e 89 10
e 89 11
e 89 12
e 89 14
e 89 15
e 89 16
e 89 17
e 89 18
e 89 21
e 89 22
e 89 24
e 89 26
e 89 28
e 89 32
e 89 35
e 89 37
e 89 38
e 89 39
e 89 40
e 89 42
e 89 43
e 89 44
e 89 45
e 89 56
e 89 57
e 89 58
e 89 60
e 89 61
e 89 62
e 89 63
e 89 64
e 89 65
e 89 66
e 89 70
e 89 76
e 89 77
e 89 79
e 89 82
e 89 83
e 89 84
e 89 85
e 89 88
e 90 2
e 90 3
e 90 4
e 90 5
e 90 8
e 90 11
e 90 12
e 90 14
e 90 16
e 90 17
e 90 20
e 90 21
e 90 27
e 90 28
e 90 32
e 90 34
e 90 35
e 90 38
e 90 48
e 90 50
e 90 51
e 90 52
e 90 53
e 90 55
e 90 57
e 90 59
e 90 60
e 90 61
e 90 62
e 90 63
e 90 64
e 90 65
e 90 70
e 90 73
e 90 74
e 90 76
e 90 77
e 90 79
e 90 83
e 90 86
e 90 89
e 91 1
e 91 2
e 91 4
e 91 6
e 91 7
e 91 8
e 91 10
e 91 12
e 91 14
e 91 15
e 91 18
e 91 19
e 91 21
e 91 24
e 91 26
e 91 27
e 91 28
e 91 29
e 91 30
e 91 34
e 91 36
e 91 42
e 91 43
e 91 45
e 91 48
e 91 49
e 91 52
e 91 55
e 91 61
e 91 62
e 91 63
e 91 65
e 91 67
e 91 69
e 91 71
e 91 72
e 91 74
e 91 75
e 91 77
e 91 80
e 91 81
e 91 85
e 91 86
e 91 88
e 91 90
e 92 1
e 92 3
e 92 4
e 92 5
e 92 6
e 92 9
e 92 12
e 92 14
e 92 17
e 92 19
e 92 21
e 92 23
e 92 24
e 92 25
e 92 30
e 92 32
e 92 34
e 92 35
e 92 36
e 92 39
e 92 41
e 92 42
e 92 43
e 92 46
e 92 50
e 92 52
e 92 53
e 92 54
e 92 56
e 92 57
e 92 62
e 92 63
e 92 67
e 92 72
e 92 75
e 92 76
e 92 77
e 92 79
e 92 80
e 92 84
e 92 85
e 92 87
e 92 88
e 92 89
e 92 90
e 93 2
e 93 3
e 93 4
e 93 10
e 93 11
e 93 12
e 93 15
e 93 18
e 93 27
e 93 29
e 93 32
e 93 33
e 93 34
e 93 39
e 93 42
e 93 43
e 93 46
e 93 47
e 93 48
e 93 50
e 93 53
e 93 54
e 93 57
e 93 59
e 93 65
e 93 67
e 93 69
e 93 70
e 93 72
e 93 73
e 93 75
e 93 76
e 93 78
e 93 81
e 93 85
e 93 89
e 93 90
e 93 91
e 93 92
e 94 2
e 94 3
e 94 7
e 94 14
e 94 17
e 94 19
e 94 27
e 94 28
e 94 31
e 94 32
e 94 33
e 94 35
e 94 36
e 94 38
e 94 39
e 94 41
e 94 42
e 94 43
e 94 44
e 94 47
e 94 49
e 94 50
e 94 51
e 94 52
e 94 53
e 94 54
e 94 58
e 94 60
e 94 64
e 94 65
e 94 68
e 94 69
e 94 71
e 94 73
e 94 75
e 94 76
e 94 78
e 94 80
e 94 81
e 94 82
e 94 83
e 94 85
e 94 87
e 94 88
e 94 92
e 94 93
e 95 1
e 95 5
e 95 6
e 95 8
e 95 9
e 95 11
e 95 12
e 95 13
e 95 14
e 95 15
e 95 16
e 95 17
e 95 19
e 95 23
e 95 24
e 95 26
e 95 27
e 95 29
e 95 32
e 95 34
e 95 35
e 95 38
e 95 39
e 95 47
e 95 49
e 95 51
e 95 53
e 95 54
e 95 56
e 95 57
e 95 58
e 95 59
e 95 60
e 95 61
e 95 62
e 95 63
e 95 65
e 95 67
e 95 70
e 95 71
e 95 72
e 95 78
e 95 81
e 95 86
e 95 88
e 95 91
e 95 92
e 95 93
e 96 1
e 96 2
e 96 6
e 96 8
e 96 9
e 96 13
e 96 15
e 96 16
e 96 17
e 96 18
e 96 20
e 96 21
e 96 22
e 96 24
e 96 25
e 96 28
e 96 30
e 96 31
e 96 33
e 96 34
e 96 35
e 96 36
e 96 37
e 96 38
e 96 39
e 96 43
e 96 45
e 96 46
e 96 48
e 96 50
e 96 51
e 96 56
e 96 57
e 96 60
e 96 61
e 96 62
e 96 63
e 96 64
e 96 65
e 96 66
e 96 67
e 96 68
e 96 69
e 96 70
e 96 71
e 96 73
e 96 75
e 96 76
e 96 78
e 96 79
e 96 81
e 96 82
e 96 83
e 96 84
e 96 85
e 96 86
e 96 87
e 96 88
e 96 92
e 96 93
e 96 94
e 97 1
e 97 6
e 97 7
e 97 8
e 97 10
e 97 11
e 97 13
e 97 14
e 97 16
e 97 17
e 97 20
e 97 23
e 97 25
e 97 26
e 97 30
e 97 31
e 97 34
e 97 36
e 97 39
e 97 47
e 97 48
e 97 49
e 97 51
e 97 54
e 97 57
e 97 58
e 97 59
e 97 60
e 97 61
e 97 63
e 97 64
e 97 65
e 97 66
e 97 69
e 97 71
e 97 72
e 97 73
e 97 75
e 97 76
e 97 78
e 97 79
e 97 83
e 97 85
e 97 86
e 97 89
e 97 92
e 97 94
e 98 4
e 98 5
e 98 10
e 98 15
e 98 19
e 98 20
e 98 22
e 98 23
e 98 24
e 98 27
e 98 28
e 98 30
e 98 33
e 98 37
e 98 38
e 98 40
e 98 41
e 98 51
e 98 54
e 98 55
e 98 56
e 98 57
e 98 58
e 98 62
e 98 63
e 98 64
e 98 66
e 98 67
e 98 69
e 98 72
e 98 74
e 98 77
e 98 78
e 98 81
e 98 82
e 98 84
e 98 85
e 98 86
e 98 87
e 98 89
e 98 90
e 98 92
e 98 95
e 99 5
e 99 6
e 99 9
e 99 10
e 99 12
e 99 13
e 99 14
e 99 16
e 99 17
e 99 18
e 99 19
e 99 21
e 99 23
e 99 24
e 99 26
e 99 27
e 99 29
e 99 30
e 99 32
e 99 33
e 99 35
e 99 37
e 99 40
e 99 42
e 99 43
e 99 44
e 99 45
e 99 47
e 99 49
e 99 52
e 99 53
e 99 54
e 99 55
e 99 56
e 99 58
e 99 62
e 99 63
e 99 64
e 99 65
e 99 66
e 99 69
e 99 71
e 99 73
e 99 74
e 99 76
e 99 78
e 99 81
e 99 82
e 99 86
e 99 87
e 99 89
e 99 90
e 99 91
e 99 92
e 99 93
e 99 95
e 99 96
e 99 97
e 100 1
e 100 2
e 100 3
e 100 6
e 100 13
e 100 14
e 100 17
e 100 21
e 100 22
e 100 25
e 100 31
e 100 35
e 100 37
e 100 38
e 100 41
e 100 42
e 100 44
e 100 45
e 100 46
e 100 49
e 100 50
e 100 51
e 100 54
e 100 55
e 100 56
e 100 57
e 100 58
e 100 59
e 100 60
e 100 62
e 100 63
e 100 65
e 100 66
e 100 68
e 100 72
e 100 73
e 100 76
e 100 80
e 100 81
e 100 87
e 100 88
e 100 93
e 100 95
e 100 96
e 100 97
e 100 98
e 101 2
e 101 3
e 101 4
e 101 5
e 101 7
e 101 8
e 101 9
e 101 11
e 101 13
e 101 15
e 101 17
e 101 18
e 101 19
e 101 22
e 101 29
e 101 30
e 101 32
e 101 33
e 101 37
e 101 38
e 101 39
e 101 42
e 101 43
e 101 46
e 101 47
e 101 49
e 101 50
e 101 51
e 101 52
e 101 55
e 101 60
e 101 61
e 101 62
e 101 63
e 101 66
e 101 67
e 101 68
e 101 69
e 101 70
e 101 73
e 101 74
e 101 79
e 101 80
e 101 83
e 101 85
e 101 86
e 101 88
e 101 91
e 101 92
e 101 93
e 101 99
e 102 1
e 102 4
e 102 5
e 102 6
e 102 7
e 102 8
e 102 10
e 102 12
e 102 13
e 102 14
e 102 15
e 102 16
e 102 19
e 102 22
e 102 23
e 102 24
e 102 26
e 102 27
e 102 29
e 102 38
e 102 39
e 102 40
e 102 45
e 102 47
e 102 48
e 102 49
e 102 53
e 102 54
e 102 57
e 102 58
e 102 60
e 102 61
e 102 62
e 102 63
e 102 66
e 102 67
e 102 68
e 102 69
e 102 71
e 102 72
e 102 74
e 102 75
e 102 76
e 102 79
e 102 81
e 102 85
e 102 88
e 102 89
e 102 90
e 102 91
e 102 93
e 102 94
e 102 96
e 102 98
e 102 99
e 103 3
e 103 4
e 103 10
e 103 11
e 103 12
e 103 15
e 103 17
e 103 20
e 103 21
e 103 27
e 103 31
e 103 32
e 103 34
e 103 35
e 103 36
e 103 40
e 103 41
e 103 43
e 103 44
e 103 47
e 103 48
e 103 52
e 103 53
e 103 55
e 103 56
e 103 58
e 103 62
e 103 63
e 103 65
e 103 67
e 103 68
e 103 71
e 103 74
e 103 75
e 103 76
e 103 78
e 103 79
e 103 80
e 103 81
e 103 83
e 103 85
e 103 89
e 103 90
e 103 93
e 103 94
e 103 96
e 103 98
e 104 2
e 104 6
e 104 8
e 104 9
e 104 10
e 104 11
e 104 14
e 104 15
e 104 20
e 104 21
e 104 22
e 104 23
e 104 24
e 104 25
e 104 26
e 104 27
e 104 28
e 104 30
e 104 34
e 104 35
e 104 37
e 104 38
e 104 39
e 104 40
e 104 42
e 104 48
e 104 50
e 104 54
e 104 55
e 104 57
e 104 59
e 104 60
e 104 61
e 104 62
e 104 63
e 104 64
e 104 66
e 104 68
e 104 70
e 104 71
e 104 72
e 104 73
e 104 77
e 104 78
e 104 81
e 104 82
e 104 84
e 104 86
e 104 87
e 104 90
e 104 91
e 104 92
e 104 95
e 104 97
e 104 99
e 104 102
e 105 3
e 105 5
e 105 7
e 105 8
e 105 9
e 105 10
e 105 16
e 105 19
e 105 21
e 105 23
e 105 25
e 105 26
e 105 27
e 105 28
e 105 31
e 105 33
e 105 34
e 105 36
e 105 38
e 105 40
e 105 41
e 105 44
e 105 47
e 105 53
e 105 54
e 105 56
e 105 59
e 105 60
e 105 64
e 105 66
e 105 69
e 105 70
e 105 71
e 105 72
e 105 78
e 105 81
e 105 82
e 105 83
e 105 85
e 105 86
e 105 87
e 105 88
e 105 89
e 105 91
e 105 94
e 105 95
e 105 97
e 105 98
e 105 99
e 105 101
e 105 102
e 105 103
e 106 1
e 106 2
e 106 3
e 106 5
e 106 6
e 106 11
e 106 12
e 106 13
e 106 14
e 106 15
e 106 18
e 106 20
e 106 23
e 106 24
e 106 25
e 106 27
e 106 28
e 106 31
e 106 34
e 106 37
e 106 39
e 106 41
e 106 43
e 106 45
e 106 52
e 106 53
e 106 54
e 106 57
e 106 58
e 106 62
e 106 63
e 106 66
e 106 68
e 106 69
e 106 70
e 106 71
e 106 74
e 106 75
e 106 79
e 106 80
e 106 81
e 106 82
e 106 84
e 106 87
e 106 89
e 106 91
e 106 94
e 106 95
e 106 97
e 106 98
e 106 100
e 106 104
e 107 1
e 107 2
e 107 3
e 107 4
e 107 5
e 107 6
e 107 7
e 107 8
e 107 9
e 107 10
e 107 12
e 107 13
e 107 14
e 107 16
e 107 17
e 107 21
e 107 22
e 107 23
e 107 25
e 107 26
e 107 27
e 107 30
e 107 31
e 107 37
e 107 41
e 107 42
e 107 45
e 107 46
e 107 51
e 107 56
e 107 57
e 107 60
e 107 61
e 107 62
e 107 63
e 107 64
e 107 65
e 107 66
e 107 68
e 107 70
e 107 71
e 107 75
e 107 76
e 107 77
e 107 78
e 107 79
e 107 80
e 107 81
e 107 82
e 107 85
e 107 87
e 107 89
e 107 94
e 107 95
e 107 96
e 107 98
e 107 100
e 107 102
e 107 105
e 108 1
e 108 2
e 108 3
e 108 4
e 108 8
e 108 11
e 108 12
e 108 14
e 108 15
e 108 17
e 108 18
e 108 19
e 108 20
e 108 21
e 108 23
e 108 28
e 108 29
e 108 30
e 108 32
e 108 36
e 108 38
e 108 47
e 108 48
e 108 53
e 108 54
e 108 55
e 108 57
e 108 58
e 108 59
e 108 60
e 108 62
e 108 63
e 108 67
e 108 70
e 108 71
e 108 75
e 108 78
e 108 84
e 108 87
e 108 88
e 108 91
e 108 92
e 108 95
e 108 96
e 108 99
e 108 101
e 108 103
e 108 106
e 109 1
e 109 2
e 109 5
e 109 6
e 109 12
e 109 13
e 109 15
e 109 19
e 109 22
e 109 23
e 109 24
e 109 26
e 109 27
e 109 30
e 109 31
e 109 33
e 109 34
e 109 35
e 109 36
e 109 37
e 109 38
e 109 39
e 109 40
e 109 43
e 109 45
e 109 47
e 109 48
e 109 50
e 109 51
e 109 55
e 109 58
e 109 59
e 109 61
e 109 62
e 109 65
e 109 67
e 109 72
e 109 73
e 109 75
e 109 76
e 109 78
e 109 79
e 109 80
e 109 85
e 109 87
e 109 89
e 109 90
e 109 94
e 109 96
e 109 97
e 109 98
e 109 102
e 109 103
e 109 106
e 109 107
e 109 108
e 110 2
e 110 5
e 110 9
e 110 10
e 110 11
e 110 14
e 110 15
e 110 17
e 110 19
e 110 21
e 110 22
e 110 23
e 110 25
e 110 29
e 110 30
e 110 32
e 110 33
e 110 35
e 110 36
e 110 37
e 110 38
e 110 40
e 110 41
e 110 45
e 110 47
e 110 51
e 110 52
e 110 53
e 110 55
e 110 56
e 110 57
e 110 61
e 110 62
e 110 65
e 110 66
e 110 67
e 110 68
e 110 69
e 110 73
e 110 77
e 110 79
e 110 82
e 110 83
e 110 84
e 110 85
e 110 89
e 110 92
e 110 93
e 110 97
e 110 98
e 110 101
e 110 108
e 111 1
e 111 3
e 111 4
e 111 6
e 111 7
e 111 10
e 111 16
e 111 25
e 111 27
e 111 30
e 111 34
e 111 35
e 111 36
e 111 39
e 111 41
e 111 42
e 111 43
e 111 44
e 111 45
e 111 46
e 111 51
e 111 61
e 111 63
e 111 64
e 111 69
e 111 70
e 111 71
e 111 72
e 111 73
e 111 74
e 111 75
e 111 76
e 111 77
e 111 79
e 111 81
e 111 82
e 111 84
e 111 85
e 111 87
e 111 89
e 111 91
e 111 92
e 111 93
e 111 97
e 111 98
e 111 99
e 111 101
e 111 103
e 111 106
e 111 107
e 111 110
e 112 1
e 112 4
e 112 5
e 112 8
e 112 9
e 112 11
e 112 12
e 112 13
e 112 14
e 112 17
e 112 18
e 112 20
e 112 21
e 112 23
e 112 26
e 112 27
e 112 28
e 112 34
e 112 35
e 112 36
e 112 37
e 112 40
e 112 41
e 112 43
e 112 44
e 112 45
e 112 47
e 112 48
e 112 49
e 112 50
e 112 53
e 112 56
e 112 57
e 112 59
e 112 60
e 112 61
e 112 62
e 112 63
e 112 65
e 112 67
e 112 68
e 112 70
e 112 71
e 112 73
e 112 74
e 112 78
e 112 79
e 112 81
e 112 82
e 112 83
e 112 85
e 112 88
e 112 89
e 112 91
e 112 92
e 112 93
e 112 94
e 112 101
e 112 102
e 112 103
e 112 106
e 112 108
e 112 109
e 112 110
e 112 111
e 113 1
e 113 4
e 113 8
e 113 10
e 113 11
e 113 17
e 113 19
e 113 20
e 113 21
e 113 22
e 113 23
e 113 24
e 113 25
e 113 26
e 113 27
e 113 29
e 113 30
e 113 31
e 113 33
e 113 34
e 113 35
e 113 36
e 113 37
e 113 38
e 113 39
e 113 42
e 113 43
e 113 45
e 113 46
e 113 50
e 113 51
e 113 53
e 113 54
e 113 55
e 113 57
e 113 58
e 113 59
e 113 60
e 113 61
e 113 63
e 113 64
e 113 69
e 113 71
e 113 73
e 113 74
e 113 75
e 113 76
e 113 77
e 113 78
e 113 80
e 113 82
e 113 83
e 113 84
e 113 85
e 113 86
e 113 87
e 113 88
e 113 90
e 113 92
e 113 93
e 113 95
e 113 100
e 113 101
e 113 103
e 113 108
e 113 109
e 113 111
e 113 112
e 114 1
e 114 2
e 114 3
e 114 6
e 114 8
e 114 9
e 114 11
e 114 12
e 114 14
e 114 19
e 114 20
e 114 22
e 114 24
e 114 25
e 114 26
e 114 28
e 114 30
e 114 32
e 114 33
e 114 38
e 114 39
e 114 40
e 114 48
e 114 49
e 114 50
e 114 52
e 114 55
e 114 56
e 114 57
e 114 58
e 114 61
e 114 62
e 114 66
e 114 68
e 114 70
e 114 72
e 114 73
e 114 74
e 114 78
e 114 80
e 114 81
e 114 83
e 114 84
e 114 85
e 114 87
e 114 90
e 114 94
e 114 100
e 114 103
e 114 104
e 114 111
e 114 112
e 114 113
e 115 3
e 115 4
e 115 5
e 115 7
e 115 9
e 115 10
e 115 11
e 115 12
e 115 15
e 115 16
e 115 17
e 115 19
e 115 23
e 115 24
e 115 25
e 115 28
e 115 30
e 115 31
e 115 32
e 115 34
e 115 36
e 115 38
e 115 41
e 115 42
e 115 45
e 115 46
e 115 48
e 115 51
e 115 52
e 115 54
e 115 55
e 115 59
e 115 61
e 115 62
e 115 63
e 115 64
e 115 70
e 115 72
e 115 75
e 115 76
e 115 77
e 115 82
e 115 84
e 115 86
e 115 88
e 115 91
e 115 92
e 115 93
e 115 94
e 115 95
e 115 96
e 115 98
e 115 99
e 115 100
e 115 103
e 115 104
e 115 105
e 115 107
e 115 109
e 115 111
e 115 112
e 116 1
e 116 3
e 116 9
e 116 10
e 116 11
e 116 12
e 116 14
e 116 18
e 116 19
e 116 20
e 116 21
e 116 22
e 116 24
e 116 26
e 116 27
e 116 28
e 116 29
e 116 30
e 116 31
e 116 36
e 116 37
e 116 38
e 116 42
e 116 43
e 116 45
e 116 48
e 116 49
e 116 50
e 116 54
e 116 61
e 116 62
e 116 63
e 116 68
e 116 70
e 116 71
e 116 72
e 116 73
e 116 74
e 116 78
e 116 79
e 116 80
e 116 81
e 116 83
e 116 84
e 116 85
e 116 86
e 116 87
e 116 89
e 116 93
e 116 94
e 116 96
e 116 97
e 116 98
e 116 101
e 116 106
e 116 108
e 116 109
e 116 110
e 116 112
e 117 1
e 117 2
e 117 3
e 117 7
e 117 9
e 117 11
e 117 13
e 117 15
e 117 16
e 117 17
e 117 20
e 117 22
e 117 24
e 117 26
e 117 27
e 117 28
e 117 29
e 117 33
e 117 36
e 117 37
e 117 41
e 117 43
e 117 45
e 117 46
e 117 47
e 117 48
e 117 49
e 117 51
e 117 52
e 117 55
e 117 56
e 117 58
e 117 59
e 117 60
e 117 61
e 117 62
e 117 65
e 117 66
e 117 72
e 117 75
e 117 77
e 117 78
e 117 80
e 117 81
e 117 86
e 117 88
e 117 89
e 117 91
e 117 95
e 117 97
e 117 99
e 117 100
e 117 102
e 117 103
e 117 105
e 117 108
e 117 111
e 117 112
e 117 115
e 117 116
e 118 2
e 118 3
e 118 4
e 118 5
e 118 6
e 118 7
e 118 8
e 118 10
e 118 12
e 118 13
e 118 19
e 118 20
e 118 21
e 118 22
e 118 27
e 118 29
e 118 30
e 118 31
e 118 35
e 118 39
e 118 40
e 118 41
e 118 43
e 118 44
e 118 45
e 118 47
e 118 48
e 118 49
e 118 51
e 118 53
e 118 56
e 118 57
e 118 58
e 118 59
e 118 60
e 118 61
e 118 62
e 118 63
e 118 68
e 118 70
e 118 72
e 118 74
e 118 75
e 118 77
e 118 79
e 118 81
e 118 84
e 118 88
e 118 89
e 118 93
e 118 95
e 118 97
e 118 98
e 118 101
e 118 102
e 118 104
e 118 107
e 118 109
e 118 110
e 118 111
e 118 114
e 118 116
e 118 117
e 119 1
e 119 3
e 119 4
e 119 7
e 119 8
e 119 14
e 119 15
e 119 17
e 119 21
e 119 24
e 119 25
e 119 26
e 119 27
e 119 29
e 119 31
e 119 32
e 119 41
e 119 43
e 119 50
e 119 51
e 119 53
e 119 55
e 119 56
e 119 57
e 119 58
e 119 59
e 119 62
e 119 67
e 119 69
e 119 71
e 119 72
e 119 73
e 119 75
e 119 78
e 119 86
e 119 87
e 119 88
e 119 96
e 119 97
e 119 98
e 119 101
e 119 102
e 119 103
e 119 104
e 119 105
e 119 107
e 119 109
e 119 111
e 119 116
e 119 118
e 120 1
e 120 2
e 120 6
e 120 7
e 120 15
e 120 17
e 120 18
e 120 19
e 120 21
e 120 22
e 120 23
e 120 24
e 120 25
e 120 27
e 120 29
e 120 31
e 120 32
e 120 33
e 120 34
e 120 37
e 120 39
e 120 40
e 120 42
e 120 45
e 120 46
e 120 47
e 120 48
e 120 49
e 120 50
e 120 52
e 120 56
e 120 57
e 120 64
e 120 65
e 120 66
e 120 67
e 120 69
e 120 70
e 120 71
e 120 72
e 120 75
e 120 76
e 120 78
e 120 79
e 120 83
e 120 84
e 120 86
e 120 87
e 120 89
e 120 91
e 120 94
e 120 96
e 120 99
e 120 102
e 120 106
e 120 108
e 120 109
e 120 110
e 120 111
e 120 113
e 120 115
e 120 118
e 120 119
